n_cases = 100;

days_input = [
  3,
  1,
  1,
  2,
  3,
  1,
  3,
  1,
  3,
  3,
  2,
  3,
  2,
  3,
  1,
  1,
  1,
  1,
  2,
  2,
  5,
  5,
  5,
  5,
  5,
  5,
  5,
  5,
  5,
  5,
  5,
  5,
  5,
  5,
  5,
  5,
  5,
  5,
  5,
  5,
  8,
  11,
  9,
  8,
  12,
  8,
  9,
  12,
  11,
  10,
  12,
  9,
  9,
  12,
  8,
  10,
  10,
  8,
  9,
  9,
  6,
  2,
  5,
  3,
  5,
  6,
  3,
  3,
  3,
  7,
  7,
  2,
  3,
  6,
  1,
  1,
  7,
  1,
  1,
  3,
  4,
  6,
  1,
  1,
  10,
  2,
  9,
  1,
  2,
  5,
  1,
  3,
  3,
  1,
  1,
  1,
  2,
  2,
  3,
  1
];

miles_input = [
  93,
  55,
  47,
  13,
  88,
  76,
  41,
  140,
  121,
  117,
  202,
  80,
  21,
  177,
  141,
  58,
  133,
  59,
  89,
  147,
  130,
  173,
  592,
  679,
  708,
  261,
  794,
  521,
  595,
  811,
  477,
  730,
  262,
  446,
  751,
  324,
  414,
  367,
  764,
  249,
  862,
  927,
  602,
  610,
  333,
  435,
  218,
  781,
  916,
  358,
  566,
  954,
  534,
  765,
  630,
  909,
  223,
  467,
  708,
  885,
  855,
  993,
  685,
  981,
  770,
  697,
  795,
  606,
  842,
  748,
  624,
  713,
  874,
  761,
  815,
  601,
  817,
  606,
  909,
  624,
  650,
  204,
  263,
  451,
  424,
  565,
  397,
  532,
  384,
  754,
  344.46,
  906.3,
  1007.56,
  359.62,
  362.79,
  288.72,
  782.17,
  623.18,
  1061.15,
  252.75
];

receipts_input = [
  1.42,
  3.6,
  17.97,
  4.67,
  5.78,
  13.74,
  4.52,
  22.71,
  21.17,
  21.99,
  21.24,
  21.05,
  20.04,
  18.73,
  10.15,
  5.86,
  8.34,
  8.31,
  13.85,
  17.43,
  306.9,
  1337.9,
  433.75,
  476.08,
  1129.52,
  464.94,
  511,
  1448.55,
  863.93,
  952.39,
  704.42,
  485.73,
  1173.79,
  219.98,
  407.43,
  128.94,
  967,
  290.78,
  848.75,
  873.75,
  1817.85,
  1994.33,
  186.69,
  208.29,
  1103.21,
  1129.65,
  1203.45,
  1159.18,
  1036.91,
  2066.62,
  2013.7,
  1483.39,
  1929.94,
  1343.97,
  967.69,
  696,
  745.89,
  1178.71,
  461.07,
  1764.97,
  591.35,
  54.24,
  747.14,
  341.45,
  873.33,
  651.64,
  450.85,
  1184.23,
  865.37,
  241.73,
  148.16,
  740.33,
  1191.4,
  530.19,
  97.89,
  497.7,
  1127.87,
  923,
  741.82,
  1160.92,
  619.49,
  818.99,
  396.49,
  555.49,
  474.99,
  389.49,
  348.49,
  413.99,
  495.49,
  489.99,
  813.85,
  540.03,
  187.52,
  221.15,
  749.19,
  159.26,
  830.72,
  347.54,
  388.5,
  285.5
];

expected_output = [
  364.51,
  126.06,
  128.91,
  203.52,
  380.37,
  158.35,
  320.12,
  199.68,
  464.07,
  359.1,
  356.17,
  366.87,
  204.58,
  430.86,
  195.14,
  117.24,
  179.06,
  120.65,
  234.2,
  325.56,
  574.1,
  1443.96,
  869,
  1030.41,
  1654.62,
  621.12,
  1139.94,
  1624.01,
  1231.67,
  1608.6,
  1045.96,
  991.49,
  1485.59,
  788.62,
  1063.46,
  686.54,
  1368.94,
  742.25,
  1468.46,
  1185.24,
  1719.37,
  1779.12,
  1085.4,
  841.27,
  1618.13,
  1525.26,
  1561.63,
  1752.72,
  2098.07,
  1624.11,
  1752.03,
  2024.2,
  1624.87,
  1953.03,
  1388.05,
  1505.19,
  1037.45,
  1483.33,
  1110.6,
  1694.37,
  1339.72,
  715.19,
  1216.36,
  813.95,
  1502.49,
  1237.71,
  743.94,
  1364.54,
  1251.14,
  971.31,
  905.79,
  1048.28,
  1515.99,
  1120.1,
  539.36,
  644.12,
  1809.91,
  1050.05,
  866.07,
  1459.34,
  676.38,
  628.4,
  198.42,
  162.18,
  831.96,
  415.96,
  913.29,
  355.57,
  290.36,
  765.13,
  707.88,
  848.42,
  764.64,
  255.57,
  636.51,
  303.94,
  1165.44,
  625.15,
  693.36,
  331.74
];
